c generated by sgen
p cnf 57 124
-2 -3 -4 0
-1 -3 -4 0
-1 -2 -4 0
-1 -2 -3 0
-6 -7 -8 0
-5 -7 -8 0
-5 -6 -8 0
-5 -6 -7 0
-10 -11 -12 0
-9 -11 -12 0
-9 -10 -12 0
-9 -10 -11 0
-14 -15 -16 0
-13 -15 -16 0
-13 -14 -16 0
-13 -14 -15 0
-18 -19 -20 0
-17 -19 -20 0
-17 -18 -20 0
-17 -18 -19 0
-22 -23 -24 0
-21 -23 -24 0
-21 -22 -24 0
-21 -22 -23 0
-26 -27 -28 0
-25 -27 -28 0
-25 -26 -28 0
-25 -26 -27 0
-30 -31 -32 0
-29 -31 -32 0
-29 -30 -32 0
-29 -30 -31 0
-34 -35 -36 0
-33 -35 -36 0
-33 -34 -36 0
-33 -34 -35 0
-38 -39 -40 0
-37 -39 -40 0
-37 -38 -40 0
-37 -38 -39 0
-42 -43 -44 0
-41 -43 -44 0
-41 -42 -44 0
-41 -42 -43 0
-46 -47 -48 0
-45 -47 -48 0
-45 -46 -48 0
-45 -46 -47 0
-50 -51 -52 0
-49 -51 -52 0
-49 -50 -52 0
-49 -50 -51 0
-53 -54 -55 0
-53 -54 -56 0
-53 -54 -57 0
-53 -55 -56 0
-53 -55 -57 0
-53 -56 -57 0
-54 -55 -56 0
-54 -55 -57 0
-54 -56 -57 0
-55 -56 -57 0
26 54 29 0
41 54 29 0
41 26 29 0
41 26 54 0
32 10 14 0
1 10 14 0
1 32 14 0
1 32 10 0
22 17 11 0
57 17 11 0
57 22 11 0
57 22 17 0
5 18 38 0
30 18 38 0
30 5 38 0
30 5 18 0
13 25 48 0
19 25 48 0
19 13 48 0
19 13 25 0
31 23 50 0
53 23 50 0
53 31 50 0
53 31 23 0
44 45 21 0
36 45 21 0
36 44 21 0
36 44 45 0
2 20 35 0
51 20 35 0
51 2 35 0
51 2 20 0
34 40 28 0
12 40 28 0
12 34 28 0
12 34 40 0
37 55 46 0
3 55 46 0
3 37 46 0
3 37 55 0
33 7 16 0
56 7 16 0
56 33 16 0
56 33 7 0
4 6 27 0
24 6 27 0
24 4 27 0
24 4 6 0
39 43 49 0
15 43 49 0
15 39 49 0
15 39 43 0
42 52 9 0
42 52 47 0
42 52 8 0
42 9 47 0
42 9 8 0
42 47 8 0
52 9 47 0
52 9 8 0
52 47 8 0
9 47 8 0
